benchmarks_vrp/CMT11/fixed_c_size/CMT11_8.vrp
NAME: CMT11_8
TYPE: CVRP
COMMENT: 1042.11 - Cluster Nr.8
DIMENSION: 9
CAPACITY: 200
EDGE_WEIGHT_TYPE: EUC_2D
NODE_COORD_TYPE: TWOD_COORDS
NODE_COORD_SECTION: 
7 85 89
8 85 85
2 83 83
3 87 80
6 85 81
9 10 45
1 90 77
4 87 86
5 83 80
DEPOT_SECTION: 
9
-1
DEMAND_SECTION: 
6 12
1 19
3 8
8 14
2 11
4 16
9 0
7 10
5 13
EOF
