benchmarks_vrp/CMT11/fixed_c_size/CMT11_8.tour
NAME: CMT11_8 solution
TYPE: TOUR
TOUR_SECTION:
9 2 8 7 4 1 3 6 5 -1
-1
EOF